PARAMETER_FILE = even/even_complete_graph_new/par/random50.par
PROBLEM_FILE = even/even_complete_graph_new/mat/random50.tsp
Successes/Runs = 0/10
Cost.min = 578, Cost.avg = 578.00, Cost.max = 578
Gap.min = 0.0000%, Gap.avg = 0.0000%, Gap.max = 0.0000%
Trials.min = 1000, Trials.avg = 1000.0, Trials.max = 1000
Time.min = 0.16 sec., Time.avg = 0.19 sec., Time.max = 0.26 sec.
Time.total = 1.96 sec.
请按任意键继续. . . 
